feature_models/dimacs/security/CVE/VarelaVaca2020-2015-9172.dimacs
c 1 CVE_2015_9172
c 2 configs
c 3 rc0
c 4 rc0_qualcomm
c 5 rc0_qualcomm_mdm9206
c 6 rc1
c 7 rc1_qualcomm
c 8 rc1_qualcomm_mdm9650
c 9 rc2
c 10 rc2_qualcomm
c 11 rc2_qualcomm_sd__210
c 12 rc3
c 13 rc3_qualcomm
c 14 rc3_qualcomm_sd__212
c 15 rc4
c 16 rc4_qualcomm
c 17 rc4_qualcomm_sd__205
c 18 rc5
c 19 rc5_qualcomm
c 20 rc5_qualcomm_sd__400
c 21 rc6
c 22 rc6_qualcomm
c 23 rc6_qualcomm_sd__410
c 24 rc7
c 25 rc7_qualcomm
c 26 rc7_qualcomm_sd__412
c 27 rc8
c 28 rc8_qualcomm
c 29 rc8_qualcomm_sd__425
c 30 rc9
c 31 rc9_qualcomm
c 32 rc9_qualcomm_sd__430
c 33 rc10
c 34 rc10_qualcomm
c 35 rc10_qualcomm_sd__450
c 36 rc11
c 37 rc11_qualcomm
c 38 rc11_qualcomm_sd__615
c 39 rc12
c 40 rc12_qualcomm
c 41 rc12_qualcomm_sd__616
c 42 rc13
c 43 rc13_qualcomm
c 44 rc13_qualcomm_sd__415
c 45 rc14
c 46 rc14_qualcomm
c 47 rc14_qualcomm_sd__617
c 48 rc15
c 49 rc15_qualcomm
c 50 rc15_qualcomm_sd__625
c 51 rc16
c 52 rc16_qualcomm
c 53 rc16_qualcomm_sd__650
c 54 rc17
c 55 rc17_qualcomm
c 56 rc17_qualcomm_sd__652
c 57 rc18
c 58 rc18_qualcomm
c 59 rc18_qualcomm_sd__800
c 60 rc19
c 61 rc19_qualcomm
c 62 rc19_qualcomm_sd__808
c 63 rc20
c 64 rc20_qualcomm
c 65 rc20_qualcomm_sd__810
c 66 rc21
c 67 rc21_qualcomm
c 68 rc21_qualcomm_sd__820
c 69 rc22
c 70 rc22_qualcomm
c 71 rc22_qualcomm_sd__835
c 72 rc23
c 73 rc23_qualcomm
c 74 rc23_qualcomm_sd__845
c 75 rc24
c 76 rc24_qualcomm
c 77 rc24_qualcomm_sd__820a
c 78 rc25
c 79 rc25_qualcomm
c 80 rc25_qualcomm_sd__850
c 81 types
c 82 operating_system
c 83 sources
c 84 nvd
c 85 exploits
c 86 direct
c 87 indirect
c 88 qualcomm
c 89 qualcomm_mdm9206__firmware
c 90 qualcomm_mdm9650__firmware
c 91 qualcomm_sd__210__firmware
c 92 qualcomm_sd__212__firmware
c 93 qualcomm_sd__205__firmware
c 94 qualcomm_sd__400__firmware
c 95 qualcomm_sd__410__firmware
c 96 qualcomm_sd__412__firmware
c 97 qualcomm_sd__425__firmware
c 98 qualcomm_sd__430__firmware
c 99 qualcomm_sd__450__firmware
c 100 qualcomm_sd__615__firmware
c 101 qualcomm_sd__616__firmware
c 102 qualcomm_sd__415__firmware
c 103 qualcomm_sd__617__firmware
c 104 qualcomm_sd__625__firmware
c 105 qualcomm_sd__650__firmware
c 106 qualcomm_sd__652__firmware
c 107 qualcomm_sd__800__firmware
c 108 qualcomm_sd__808__firmware
c 109 qualcomm_sd__810__firmware
c 110 qualcomm_sd__820__firmware
c 111 qualcomm_sd__835__firmware
c 112 qualcomm_sd__845__firmware
c 113 qualcomm_sd__820a__firmware
c 114 qualcomm_sd__850__firmware
p cnf 114 876
1 0
1 -2 0
1 -81 0
1 -83 0
1 -85 0
1 -88 0
-1 81 0
-1 83 0
-1 85 0
-1 88 0
2 -3 0
2 -6 0
2 -9 0
2 -12 0
2 -15 0
2 -18 0
2 -21 0
2 -24 0
2 -27 0
2 -30 0
2 -33 0
2 -36 0
2 -39 0
2 -42 0
2 -45 0
2 -48 0
2 -51 0
2 -54 0
2 -57 0
2 -60 0
2 -63 0
2 -66 0
2 -69 0
2 -72 0
2 -75 0
2 -78 0
-2 3 6 33 36 39 42 45 48 51 54 57 60 9 63 66 69 72 75 78 12 15 18 21 24 27 30 0
-3 -6 0
-3 -9 0
-3 -12 0
-3 -15 0
-3 -18 0
-3 -21 0
-3 -24 0
-3 -27 0
-3 -30 0
-3 -33 0
-3 -36 0
-3 -39 0
-3 -42 0
-3 -45 0
-3 -48 0
-3 -51 0
-3 -54 0
-3 -57 0
-3 -60 0
-3 -63 0
-3 -66 0
-3 -69 0
-3 -72 0
-3 -75 0
-3 -78 0
-6 -9 0
-6 -12 0
-6 -15 0
-6 -18 0
-6 -21 0
-6 -24 0
-6 -27 0
-6 -30 0
-6 -33 0
-6 -36 0
-6 -39 0
-6 -42 0
-6 -45 0
-6 -48 0
-6 -51 0
-6 -54 0
-6 -57 0
-6 -60 0
-6 -63 0
-6 -66 0
-6 -69 0
-6 -72 0
-6 -75 0
-6 -78 0
-9 -12 0
-9 -15 0
-9 -18 0
-9 -21 0
-9 -24 0
-9 -27 0
-9 -30 0
-33 -9 0
-36 -9 0
-39 -9 0
-42 -9 0
-45 -9 0
-48 -9 0
-51 -9 0
-54 -9 0
-57 -9 0
-60 -9 0
-9 -63 0
-9 -66 0
-9 -69 0
-9 -72 0
-9 -75 0
-9 -78 0
-12 -15 0
-12 -18 0
-12 -21 0
-12 -24 0
-12 -27 0
-12 -30 0
-33 -12 0
-36 -12 0
-39 -12 0
-42 -12 0
-45 -12 0
-48 -12 0
-51 -12 0
-54 -12 0
-57 -12 0
-60 -12 0
-63 -12 0
-66 -12 0
-69 -12 0
-72 -12 0
-75 -12 0
-78 -12 0
-15 -18 0
-15 -21 0
-15 -24 0
-15 -27 0
-15 -30 0
-33 -15 0
-36 -15 0
-39 -15 0
-42 -15 0
-45 -15 0
-48 -15 0
-51 -15 0
-54 -15 0
-57 -15 0
-60 -15 0
-63 -15 0
-66 -15 0
-69 -15 0
-72 -15 0
-75 -15 0
-78 -15 0
-18 -21 0
-18 -24 0
-18 -27 0
-18 -30 0
-33 -18 0
-36 -18 0
-39 -18 0
-42 -18 0
-45 -18 0
-48 -18 0
-51 -18 0
-54 -18 0
-57 -18 0
-60 -18 0
-63 -18 0
-66 -18 0
-69 -18 0
-72 -18 0
-75 -18 0
-78 -18 0
-21 -24 0
-21 -27 0
-21 -30 0
-33 -21 0
-36 -21 0
-39 -21 0
-42 -21 0
-45 -21 0
-48 -21 0
-51 -21 0
-54 -21 0
-57 -21 0
-60 -21 0
-63 -21 0
-66 -21 0
-69 -21 0
-72 -21 0
-75 -21 0
-78 -21 0
-24 -27 0
-24 -30 0
-33 -24 0
-36 -24 0
-39 -24 0
-42 -24 0
-45 -24 0
-48 -24 0
-51 -24 0
-54 -24 0
-57 -24 0
-60 -24 0
-63 -24 0
-66 -24 0
-69 -24 0
-72 -24 0
-75 -24 0
-78 -24 0
-27 -30 0
-33 -27 0
-36 -27 0
-39 -27 0
-42 -27 0
-45 -27 0
-48 -27 0
-51 -27 0
-54 -27 0
-57 -27 0
-60 -27 0
-63 -27 0
-66 -27 0
-69 -27 0
-72 -27 0
-75 -27 0
-78 -27 0
-33 -30 0
-36 -30 0
-39 -30 0
-42 -30 0
-45 -30 0
-48 -30 0
-51 -30 0
-54 -30 0
-57 -30 0
-60 -30 0
-63 -30 0
-66 -30 0
-69 -30 0
-72 -30 0
-75 -30 0
-78 -30 0
-33 -36 0
-33 -39 0
-33 -42 0
-33 -45 0
-33 -48 0
-33 -51 0
-33 -54 0
-33 -57 0
-33 -60 0
-33 -63 0
-33 -66 0
-33 -69 0
-33 -72 0
-33 -75 0
-33 -78 0
-36 -39 0
-36 -42 0
-36 -45 0
-36 -48 0
-36 -51 0
-36 -54 0
-36 -57 0
-36 -60 0
-36 -63 0
-36 -66 0
-36 -69 0
-36 -72 0
-36 -75 0
-36 -78 0
-39 -42 0
-39 -45 0
-39 -48 0
-39 -51 0
-39 -54 0
-39 -57 0
-39 -60 0
-39 -63 0
-39 -66 0
-39 -69 0
-39 -72 0
-39 -75 0
-39 -78 0
-42 -45 0
-42 -48 0
-42 -51 0
-42 -54 0
-42 -57 0
-42 -60 0
-42 -63 0
-42 -66 0
-42 -69 0
-42 -72 0
-42 -75 0
-42 -78 0
-45 -48 0
-45 -51 0
-45 -54 0
-45 -57 0
-45 -60 0
-45 -63 0
-45 -66 0
-45 -69 0
-45 -72 0
-45 -75 0
-45 -78 0
-48 -51 0
-48 -54 0
-48 -57 0
-48 -60 0
-48 -63 0
-48 -66 0
-48 -69 0
-48 -72 0
-48 -75 0
-48 -78 0
-51 -54 0
-51 -57 0
-51 -60 0
-51 -63 0
-51 -66 0
-51 -69 0
-51 -72 0
-51 -75 0
-51 -78 0
-54 -57 0
-54 -60 0
-54 -63 0
-54 -66 0
-54 -69 0
-54 -72 0
-54 -75 0
-54 -78 0
-57 -60 0
-57 -63 0
-57 -66 0
-57 -69 0
-57 -72 0
-57 -75 0
-57 -78 0
-60 -63 0
-60 -66 0
-60 -69 0
-60 -72 0
-60 -75 0
-60 -78 0
-63 -66 0
-63 -69 0
-63 -72 0
-63 -75 0
-63 -78 0
-66 -69 0
-66 -72 0
-66 -75 0
-66 -78 0
-69 -72 0
-69 -75 0
-69 -78 0
-72 -75 0
-72 -78 0
-75 -78 0
3 -4 0
-3 4 0
4 -5 0
-4 5 0
6 -7 0
-6 7 0
7 -8 0
-7 8 0
9 -10 0
-9 10 0
10 -11 0
-10 11 0
12 -13 0
-12 13 0
13 -14 0
-13 14 0
15 -16 0
-15 16 0
16 -17 0
-16 17 0
18 -19 0
-18 19 0
19 -20 0
-19 20 0
21 -22 0
-21 22 0
22 -23 0
-22 23 0
24 -25 0
-24 25 0
25 -26 0
-25 26 0
27 -28 0
-27 28 0
28 -29 0
-28 29 0
30 -31 0
-30 31 0
31 -32 0
-31 32 0
33 -34 0
-33 34 0
34 -35 0
-34 35 0
36 -37 0
-36 37 0
37 -38 0
-37 38 0
39 -40 0
-39 40 0
40 -41 0
-40 41 0
42 -43 0
-42 43 0
43 -44 0
-43 44 0
45 -46 0
-45 46 0
46 -47 0
-46 47 0
48 -49 0
-48 49 0
49 -50 0
-49 50 0
51 -52 0
-51 52 0
52 -53 0
-52 53 0
54 -55 0
-54 55 0
55 -56 0
-55 56 0
57 -58 0
-57 58 0
58 -59 0
-58 59 0
60 -61 0
-60 61 0
61 -62 0
-61 62 0
63 -64 0
-63 64 0
64 -65 0
-64 65 0
66 -67 0
-66 67 0
67 -68 0
-67 68 0
69 -70 0
-69 70 0
70 -71 0
-70 71 0
72 -73 0
-72 73 0
73 -74 0
-73 74 0
75 -76 0
-75 76 0
76 -77 0
-76 77 0
78 -79 0
-78 79 0
79 -80 0
-79 80 0
-82 81 0
82 -81 0
-84 83 0
84 -83 0
-86 85 0
85 -87 0
88 -89 0
88 -90 0
88 -91 0
88 -92 0
88 -93 0
88 -94 0
88 -95 0
88 -96 0
88 -97 0
88 -98 0
88 -99 0
88 -100 0
88 -101 0
88 -102 0
88 -103 0
88 -104 0
88 -105 0
88 -106 0
88 -107 0
88 -108 0
88 -109 0
88 -110 0
88 -111 0
88 -112 0
88 -113 0
88 -114 0
-88 89 90 93 91 92 94 95 96 102 97 98 99 100 101 103 104 105 106 107 108 109 110 113 111 112 114 0
-89 -90 0
-89 -91 0
-89 -92 0
-89 -93 0
-89 -94 0
-89 -95 0
-89 -96 0
-89 -97 0
-89 -98 0
-89 -99 0
-89 -100 0
-89 -101 0
-89 -102 0
-89 -103 0
-89 -104 0
-89 -105 0
-89 -106 0
-89 -107 0
-89 -108 0
-89 -109 0
-89 -110 0
-89 -111 0
-89 -112 0
-89 -113 0
-89 -114 0
-90 -91 0
-90 -92 0
-90 -93 0
-90 -94 0
-90 -95 0
-90 -96 0
-90 -97 0
-90 -98 0
-90 -99 0
-90 -100 0
-90 -101 0
-90 -102 0
-90 -103 0
-90 -104 0
-90 -105 0
-90 -106 0
-90 -107 0
-90 -108 0
-90 -109 0
-90 -110 0
-90 -111 0
-90 -112 0
-90 -113 0
-90 -114 0
-91 -92 0
-93 -91 0
-91 -94 0
-91 -95 0
-91 -96 0
-91 -97 0
-91 -98 0
-91 -99 0
-91 -100 0
-91 -101 0
-91 -102 0
-91 -103 0
-91 -104 0
-91 -105 0
-91 -106 0
-91 -107 0
-91 -108 0
-91 -109 0
-91 -110 0
-91 -111 0
-91 -112 0
-91 -113 0
-91 -114 0
-93 -92 0
-92 -94 0
-92 -95 0
-92 -96 0
-92 -97 0
-92 -98 0
-92 -99 0
-92 -100 0
-92 -101 0
-92 -102 0
-92 -103 0
-92 -104 0
-92 -105 0
-92 -106 0
-92 -107 0
-92 -108 0
-92 -109 0
-92 -110 0
-92 -111 0
-92 -112 0
-92 -113 0
-92 -114 0
-93 -94 0
-93 -95 0
-93 -96 0
-93 -97 0
-93 -98 0
-93 -99 0
-93 -100 0
-93 -101 0
-93 -102 0
-93 -103 0
-93 -104 0
-93 -105 0
-93 -106 0
-93 -107 0
-93 -108 0
-93 -109 0
-93 -110 0
-93 -111 0
-93 -112 0
-93 -113 0
-93 -114 0
-94 -95 0
-94 -96 0
-94 -97 0
-94 -98 0
-94 -99 0
-94 -100 0
-94 -101 0
-94 -102 0
-94 -103 0
-94 -104 0
-94 -105 0
-94 -106 0
-94 -107 0
-94 -108 0
-94 -109 0
-94 -110 0
-94 -111 0
-94 -112 0
-94 -113 0
-94 -114 0
-95 -96 0
-95 -97 0
-95 -98 0
-95 -99 0
-95 -100 0
-95 -101 0
-95 -102 0
-95 -103 0
-95 -104 0
-95 -105 0
-95 -106 0
-95 -107 0
-95 -108 0
-95 -109 0
-95 -110 0
-95 -111 0
-95 -112 0
-95 -113 0
-95 -114 0
-96 -97 0
-96 -98 0
-96 -99 0
-96 -100 0
-96 -101 0
-96 -102 0
-96 -103 0
-96 -104 0
-96 -105 0
-96 -106 0
-96 -107 0
-96 -108 0
-96 -109 0
-96 -110 0
-96 -111 0
-96 -112 0
-96 -113 0
-96 -114 0
-97 -98 0
-97 -99 0
-97 -100 0
-97 -101 0
-102 -97 0
-97 -103 0
-97 -104 0
-97 -105 0
-97 -106 0
-97 -107 0
-97 -108 0
-97 -109 0
-97 -110 0
-97 -111 0
-97 -112 0
-97 -113 0
-97 -114 0
-98 -99 0
-98 -100 0
-98 -101 0
-102 -98 0
-98 -103 0
-98 -104 0
-98 -105 0
-98 -106 0
-98 -107 0
-98 -108 0
-98 -109 0
-98 -110 0
-98 -111 0
-98 -112 0
-98 -113 0
-98 -114 0
-99 -100 0
-99 -101 0
-102 -99 0
-99 -103 0
-99 -104 0
-99 -105 0
-99 -106 0
-99 -107 0
-99 -108 0
-99 -109 0
-99 -110 0
-99 -111 0
-99 -112 0
-99 -113 0
-99 -114 0
-100 -101 0
-102 -100 0
-100 -103 0
-100 -104 0
-100 -105 0
-100 -106 0
-100 -107 0
-100 -108 0
-100 -109 0
-100 -110 0
-100 -111 0
-100 -112 0
-100 -113 0
-100 -114 0
-102 -101 0
-101 -103 0
-101 -104 0
-101 -105 0
-101 -106 0
-101 -107 0
-101 -108 0
-101 -109 0
-101 -110 0
-101 -111 0
-101 -112 0
-101 -113 0
-101 -114 0
-102 -103 0
-102 -104 0
-102 -105 0
-102 -106 0
-102 -107 0
-102 -108 0
-102 -109 0
-102 -110 0
-102 -111 0
-102 -112 0
-102 -113 0
-102 -114 0
-103 -104 0
-103 -105 0
-103 -106 0
-103 -107 0
-103 -108 0
-103 -109 0
-103 -110 0
-103 -111 0
-103 -112 0
-103 -113 0
-103 -114 0
-104 -105 0
-104 -106 0
-104 -107 0
-104 -108 0
-104 -109 0
-104 -110 0
-104 -111 0
-104 -112 0
-104 -113 0
-104 -114 0
-105 -106 0
-105 -107 0
-105 -108 0
-105 -109 0
-105 -110 0
-105 -111 0
-105 -112 0
-105 -113 0
-105 -114 0
-106 -107 0
-106 -108 0
-106 -109 0
-106 -110 0
-106 -111 0
-106 -112 0
-106 -113 0
-106 -114 0
-107 -108 0
-107 -109 0
-107 -110 0
-107 -111 0
-107 -112 0
-107 -113 0
-107 -114 0
-108 -109 0
-108 -110 0
-108 -111 0
-108 -112 0
-108 -113 0
-108 -114 0
-109 -110 0
-109 -111 0
-109 -112 0
-109 -113 0
-109 -114 0
-110 -111 0
-110 -112 0
-110 -113 0
-110 -114 0
-111 -112 0
-113 -111 0
-111 -114 0
-113 -112 0
-112 -114 0
-113 -114 0
82 -89 0
82 -90 0
82 -91 0
82 -92 0
82 -93 0
82 -94 0
82 -95 0
82 -96 0
82 -97 0
82 -98 0
82 -99 0
82 -100 0
82 -101 0
82 -102 0
82 -103 0
82 -104 0
82 -105 0
82 -106 0
82 -107 0
82 -108 0
82 -109 0
82 -110 0
82 -111 0
82 -112 0
82 -113 0
82 -114 0
-89 3 0
-90 6 0
-91 9 0
-92 12 0
-93 15 0
-94 18 0
-95 21 0
-96 24 0
-97 27 0
-98 30 0
-99 33 0
-100 36 0
-101 39 0
-102 42 0
-103 45 0
-104 48 0
-105 51 0
-106 54 0
-107 57 0
-108 60 0
-109 63 0
-110 66 0
-111 69 0
-112 72 0
-113 75 0
-114 78 0
